************************************************************************
file with basedata            : mm52_.bas
initial value random generator: 1424037310
************************************************************************
projects                      :  1
jobs (incl. supersource/sink ):  12
horizon                       :  72
RESOURCES
  - renewable                 :  2   R
  - nonrenewable              :  2   N
  - doubly constrained        :  0   D
************************************************************************
PROJECT INFORMATION:
pronr.  #jobs rel.date duedate tardcost  MPM-Time
    1     10      0       10        4       10
************************************************************************
PRECEDENCE RELATIONS:
jobnr.    #modes  #successors   successors
   0        1          3           1   2   3
   1        3          3           5   6   9
   2        3          1           4
   3        3          3           5   7   9
   4        3          2           6   7
   5        3          1          10
   6        3          1          10
   7        3          1           8
   8        3          1          11
   9        3          1          11
  10        3          1          11
  11        1          0        
************************************************************************
REQUESTS/DURATIONS:
jobnr. mode duration  R 1  R 2  R 3  R 4  E(W 1)  E(W 2)  E(W 3)
------------------------------------------------------------------------
  0      1     0       0    0    0    0     0       0       0
  1      1     3       2    7    8    0    27      24       0
  2      1     2       4    6    0    5    20       0      10
  3      1     4       9   10    0   10    76       0      40
  4      1     1       7   10    0    5    17       0       5
  5      1     1       8    1    8    0    10       8       0
  6      1     1       5    7    8    0    12       8       0
  7      1     1       9    8    8    0    17       8       0
  8      1     5       4    2    0    3    30       0      15
  9      1     2       2    8    0    5    20       0      10
 10      1     3       5    5    0    8    30       0      24
 11      1     0       0    0    0    0     0       0       0
************************************************************************
RESOURCEAVAILABILITIES:
  R 1  R 2  R 3
   38   52   52
************************************************************************
RESOURCE LIMITS:
jobnr.  l(R 1)  u(R 1)  l(R 2)  u(R 2)  l(R 3)  u(R 3)
------------------------------------------------------------------------
  0        0       0       0       0       0       0
  1        5       9       4       8       0       0
  2        5      10       0       0       3       5
  3       10      19       0       0       5      10
  4        9      17       0       0       3       5
  5        5      10       4       8       0       0
  6        7      12       4       8       0       0
  7        9      17       4       8       0       0
  8        3       6       0       0       2       3
  9        5      10       0       0       3       5
 10        6      10       0       0       4       8
 11        0       0       0       0       0       0
************************************************************************
SCENARIOS:
------------------------------------------------------------------------
RESOURCE k = 1
s = 1: (0, 19, 22, 65, 20, 11, 15, 11, 35, 16, 24, 0)
s = 2: (0, 23, 18, 73, 22, 7, 9, 17, 21, 21, 25, 0)
s = 3: (0, 35, 15, 98, 17, 9, 7, 14, 17, 23, 29, 0)
s = 4: (0, 33, 21, 61, 20, 14, 10, 27, 30, 20, 26, 0)
s = 5: (0, 30, 28, 104, 14, 10, 14, 19, 35, 30, 24, 0)
s = 6: (0, 28, 24, 87, 17, 13, 12, 19, 28, 29, 31, 0)
s = 7: (0, 39, 19, 75, 13, 8, 11, 23, 26, 22, 19, 0)
s = 8: (0, 28, 22, 91, 18, 8, 10, 12, 22, 31, 28, 0)
s = 9: (0, 30, 21, 100, 22, 7, 14, 20, 18, 17, 20, 0)
s = 10: (0, 25, 17, 56, 15, 12, 10, 14, 38, 16, 35, 0)
s = 11: (0, 39, 19, 135, 12, 18, 13, 11, 24, 11, 35, 0)
s = 12: (0, 15, 20, 64, 19, 13, 14, 17, 25, 19, 20, 0)
s = 13: (0, 30, 19, 41, 15, 12, 14, 24, 35, 28, 32, 0)
s = 14: (0, 18, 20, 70, 21, 10, 20, 25, 35, 16, 40, 0)
s = 15: (0, 21, 28, 62, 11, 13, 10, 18, 40, 15, 32, 0)
s = 16: (0, 18, 15, 92, 19, 8, 10, 18, 32, 23, 23, 0)
s = 17: (0, 25, 23, 81, 14, 13, 11, 12, 31, 12, 28, 0)
s = 18: (0, 25, 16, 91, 13, 11, 11, 28, 29, 18, 30, 0)
s = 19: (0, 19, 22, 90, 16, 13, 10, 19, 25, 18, 24, 0)
s = 20: (0, 31, 20, 61, 13, 13, 7, 13, 27, 17, 26, 0)
s = 21: (0, 31, 15, 66, 13, 8, 17, 11, 20, 29, 30, 0)
s = 22: (0, 38, 13, 84, 21, 8, 23, 24, 17, 28, 30, 0)
s = 23: (0, 16, 14, 73, 14, 13, 11, 22, 17, 18, 44, 0)
s = 24: (0, 27, 21, 101, 10, 11, 8, 19, 29, 16, 29, 0)
s = 25: (0, 41, 20, 56, 16, 9, 13, 21, 30, 13, 33, 0)
s = 26: (0, 17, 30, 70, 16, 14, 8, 20, 33, 12, 24, 0)
s = 27: (0, 39, 33, 59, 16, 13, 8, 9, 37, 23, 25, 0)
s = 28: (0, 26, 17, 47, 21, 13, 10, 24, 24, 21, 26, 0)
s = 29: (0, 28, 29, 95, 14, 9, 22, 23, 21, 11, 24, 0)
s = 30: (0, 43, 22, 48, 11, 7, 13, 25, 30, 14, 32, 0)
s = 31: (0, 26, 15, 110, 17, 7, 13, 19, 19, 15, 18, 0)
s = 32: (0, 38, 17, 60, 17, 6, 12, 26, 19, 15, 22, 0)
s = 33: (0, 36, 19, 50, 14, 15, 12, 19, 23, 16, 27, 0)
s = 34: (0, 39, 19, 102, 23, 6, 11, 26, 20, 19, 18, 0)
s = 35: (0, 21, 17, 82, 17, 9, 13, 26, 31, 15, 36, 0)
s = 36: (0, 36, 20, 47, 14, 8, 13, 19, 32, 13, 29, 0)
s = 37: (0, 28, 17, 99, 11, 9, 12, 20, 32, 16, 24, 0)
s = 38: (0, 23, 14, 65, 17, 10, 12, 15, 27, 15, 34, 0)
s = 39: (0, 21, 21, 89, 26, 10, 14, 12, 40, 23, 21, 0)
s = 40: (0, 21, 38, 110, 17, 11, 16, 16, 20, 20, 35, 0)
s = 41: (0, 28, 17, 100, 28, 7, 14, 17, 33, 18, 35, 0)
s = 42: (0, 37, 36, 82, 10, 10, 15, 16, 29, 23, 32, 0)
s = 43: (0, 16, 13, 56, 13, 8, 22, 13, 39, 24, 16, 0)
s = 44: (0, 19, 26, 90, 14, 15, 11, 12, 18, 36, 27, 0)
s = 45: (0, 26, 31, 106, 21, 13, 10, 29, 28, 20, 16, 0)
s = 46: (0, 22, 21, 71, 18, 8, 9, 10, 24, 14, 27, 0)
s = 47: (0, 40, 18, 67, 24, 9, 8, 16, 45, 29, 28, 0)
s = 48: (0, 39, 15, 60, 15, 9, 7, 15, 27, 33, 36, 0)
s = 49: (0, 26, 21, 54, 12, 8, 13, 23, 37, 18, 52, 0)
s = 50: (0, 20, 25, 67, 29, 9, 15, 17, 25, 25, 39, 0)
s = 51: (0, 26, 20, 85, 14, 7, 10, 17, 34, 32, 35, 0)
s = 52: (0, 30, 14, 88, 24, 10, 14, 14, 32, 30, 35, 0)
s = 53: (0, 33, 20, 68, 13, 11, 13, 19, 20, 16, 34, 0)
s = 54: (0, 23, 16, 90, 17, 10, 13, 16, 25, 18, 22, 0)
s = 55: (0, 34, 28, 102, 16, 6, 10, 13, 36, 26, 35, 0)
s = 56: (0, 39, 12, 114, 14, 11, 10, 18, 29, 19, 58, 0)
s = 57: (0, 22, 34, 89, 17, 13, 8, 14, 31, 27, 46, 0)
s = 58: (0, 31, 28, 80, 18, 13, 14, 17, 29, 22, 28, 0)
s = 59: (0, 30, 21, 99, 21, 6, 11, 18, 28, 20, 31, 0)
s = 60: (0, 29, 35, 81, 12, 11, 12, 20, 34, 15, 40, 0)
s = 61: (0, 35, 19, 96, 18, 6, 10, 20, 19, 14, 35, 0)
s = 62: (0, 26, 27, 70, 10, 10, 10, 26, 26, 18, 36, 0)
s = 63: (0, 27, 21, 117, 14, 10, 11, 18, 30, 23, 33, 0)
s = 64: (0, 23, 27, 79, 15, 8, 13, 10, 43, 31, 21, 0)
s = 65: (0, 26, 15, 44, 13, 9, 7, 10, 38, 15, 43, 0)
s = 66: (0, 17, 35, 59, 22, 8, 8, 14, 28, 16, 28, 0)
s = 67: (0, 27, 14, 93, 16, 12, 10, 19, 38, 25, 23, 0)
s = 68: (0, 29, 20, 64, 19, 11, 22, 12, 31, 24, 36, 0)
s = 69: (0, 25, 21, 103, 15, 9, 11, 15, 31, 26, 35, 0)
s = 70: (0, 33, 29, 47, 16, 12, 10, 25, 28, 22, 44, 0)
s = 71: (0, 32, 23, 110, 17, 9, 8, 16, 18, 19, 28, 0)
s = 72: (0, 18, 14, 57, 9, 8, 13, 23, 50, 13, 28, 0)
s = 73: (0, 38, 18, 69, 23, 6, 10, 16, 18, 20, 24, 0)
s = 74: (0, 23, 14, 105, 17, 13, 13, 19, 28, 18, 37, 0)
s = 75: (0, 42, 30, 58, 16, 11, 8, 23, 18, 15, 18, 0)
s = 76: (0, 44, 20, 55, 13, 12, 15, 15, 27, 15, 31, 0)
s = 77: (0, 29, 21, 53, 17, 11, 8, 16, 32, 33, 31, 0)
s = 78: (0, 18, 19, 77, 27, 8, 15, 17, 24, 13, 22, 0)
s = 79: (0, 21, 20, 55, 14, 8, 14, 12, 36, 22, 38, 0)
s = 80: (0, 25, 25, 90, 32, 16, 14, 17, 48, 21, 41, 0)
s = 81: (0, 16, 32, 91, 20, 10, 13, 28, 31, 15, 25, 0)
s = 82: (0, 54, 18, 44, 16, 14, 16, 20, 23, 13, 24, 0)
s = 83: (0, 28, 21, 63, 25, 13, 12, 20, 23, 23, 20, 0)
s = 84: (0, 24, 16, 59, 12, 10, 7, 17, 35, 23, 36, 0)
s = 85: (0, 25, 26, 47, 12, 10, 10, 14, 36, 18, 38, 0)
s = 86: (0, 33, 20, 105, 11, 8, 17, 19, 17, 16, 17, 0)
s = 87: (0, 16, 34, 65, 12, 14, 10, 24, 26, 23, 25, 0)
s = 88: (0, 26, 30, 108, 13, 11, 7, 18, 46, 22, 47, 0)
s = 89: (0, 21, 16, 90, 21, 9, 12, 20, 23, 26, 26, 0)
s = 90: (0, 30, 27, 72, 16, 7, 13, 9, 37, 15, 19, 0)
s = 91: (0, 16, 25, 54, 13, 11, 13, 16, 24, 22, 33, 0)
s = 92: (0, 32, 14, 59, 19, 9, 15, 12, 21, 15, 27, 0)
s = 93: (0, 44, 16, 93, 18, 10, 7, 14, 37, 17, 22, 0)
s = 94: (0, 17, 21, 84, 24, 12, 9, 33, 28, 21, 35, 0)
s = 95: (0, 21, 23, 43, 18, 15, 17, 14, 23, 13, 36, 0)
s = 96: (0, 21, 21, 63, 20, 7, 15, 25, 18, 11, 44, 0)
s = 97: (0, 29, 14, 89, 31, 13, 18, 18, 21, 25, 26, 0)
s = 98: (0, 19, 26, 53, 17, 13, 9, 15, 28, 19, 45, 0)
s = 99: (0, 31, 17, 70, 19, 11, 11, 14, 29, 26, 32, 0)
s = 100: (0, 18, 26, 87, 23, 12, 11, 18, 38, 18, 31, 0)
s = 101: (0, 20, 15, 44, 27, 9, 8, 14, 22, 21, 29, 0)
s = 102: (0, 24, 21, 80, 16, 13, 14, 10, 24, 21, 34, 0)
s = 103: (0, 35, 21, 61, 16, 10, 11, 21, 20, 23, 52, 0)
s = 104: (0, 26, 19, 97, 26, 9, 19, 21, 30, 14, 25, 0)
s = 105: (0, 19, 15, 85, 24, 15, 13, 17, 36, 14, 46, 0)
s = 106: (0, 22, 13, 93, 27, 11, 15, 29, 23, 25, 25, 0)
s = 107: (0, 26, 17, 49, 12, 12, 16, 21, 28, 26, 18, 0)
s = 108: (0, 15, 16, 88, 12, 7, 12, 15, 35, 24, 25, 0)
s = 109: (0, 34, 26, 112, 25, 7, 13, 12, 42, 20, 32, 0)
s = 110: (0, 20, 19, 52, 25, 8, 12, 10, 30, 24, 25, 0)
s = 111: (0, 19, 27, 85, 12, 10, 9, 16, 41, 15, 35, 0)
s = 112: (0, 28, 15, 57, 9, 9, 9, 17, 46, 34, 27, 0)
s = 113: (0, 21, 11, 46, 20, 12, 12, 27, 22, 23, 46, 0)
s = 114: (0, 23, 25, 61, 12, 13, 11, 18, 25, 18, 27, 0)
s = 115: (0, 30, 18, 59, 17, 11, 10, 15, 33, 22, 32, 0)
s = 116: (0, 20, 19, 87, 22, 9, 11, 12, 28, 23, 34, 0)
s = 117: (0, 28, 27, 122, 17, 12, 16, 14, 36, 14, 23, 0)
s = 118: (0, 22, 26, 82, 15, 6, 18, 14, 19, 23, 22, 0)
s = 119: (0, 34, 28, 87, 19, 11, 13, 14, 45, 15, 30, 0)
s = 120: (0, 28, 15, 55, 20, 12, 20, 12, 38, 29, 33, 0)
s = 121: (0, 19, 26, 87, 25, 11, 15, 20, 28, 17, 35, 0)
s = 122: (0, 15, 19, 78, 20, 10, 9, 16, 33, 19, 28, 0)
s = 123: (0, 31, 21, 59, 28, 12, 9, 10, 23, 12, 41, 0)
s = 124: (0, 29, 25, 123, 22, 14, 16, 12, 19, 18, 31, 0)
s = 125: (0, 24, 16, 68, 19, 9, 19, 23, 22, 22, 17, 0)
s = 126: (0, 19, 34, 46, 18, 7, 7, 13, 23, 22, 30, 0)
s = 127: (0, 27, 15, 78, 13, 8, 11, 11, 29, 13, 21, 0)
s = 128: (0, 22, 21, 80, 16, 16, 15, 11, 39, 22, 30, 0)
s = 129: (0, 33, 17, 67, 14, 11, 11, 19, 35, 23, 23, 0)
s = 130: (0, 29, 14, 51, 13, 8, 15, 12, 23, 13, 27, 0)
s = 131: (0, 39, 17, 89, 14, 12, 12, 22, 37, 23, 27, 0)
s = 132: (0, 33, 37, 89, 21, 9, 17, 23, 29, 19, 32, 0)
s = 133: (0, 35, 14, 62, 14, 16, 16, 12, 33, 13, 35, 0)
s = 134: (0, 24, 24, 103, 15, 11, 8, 23, 33, 25, 51, 0)
s = 135: (0, 21, 19, 82, 20, 9, 16, 22, 25, 19, 26, 0)
s = 136: (0, 25, 22, 49, 13, 10, 12, 10, 34, 30, 22, 0)
s = 137: (0, 27, 30, 80, 12, 6, 18, 26, 24, 34, 27, 0)
s = 138: (0, 23, 27, 98, 13, 7, 13, 26, 42, 25, 28, 0)
s = 139: (0, 17, 22, 99, 11, 7, 18, 11, 24, 13, 42, 0)
s = 140: (0, 31, 25, 63, 21, 11, 12, 14, 46, 28, 30, 0)
s = 141: (0, 26, 16, 85, 24, 15, 13, 18, 22, 25, 24, 0)
s = 142: (0, 36, 16, 109, 17, 8, 12, 27, 23, 20, 52, 0)
s = 143: (0, 29, 23, 58, 25, 14, 17, 11, 32, 23, 20, 0)
s = 144: (0, 31, 20, 71, 22, 9, 25, 13, 28, 20, 45, 0)
s = 145: (0, 28, 16, 82, 17, 12, 12, 20, 21, 15, 20, 0)
s = 146: (0, 24, 33, 67, 26, 9, 9, 15, 45, 30, 42, 0)
s = 147: (0, 39, 25, 55, 28, 8, 11, 12, 29, 16, 41, 0)
s = 148: (0, 26, 27, 81, 22, 13, 8, 25, 30, 17, 24, 0)
s = 149: (0, 35, 16, 72, 21, 11, 9, 16, 29, 27, 41, 0)
s = 150: (0, 29, 12, 82, 16, 10, 13, 25, 40, 17, 32, 0)
s = 151: (0, 17, 15, 50, 15, 12, 11, 27, 23, 15, 38, 0)
s = 152: (0, 26, 20, 81, 19, 12, 15, 18, 26, 12, 23, 0)
s = 153: (0, 24, 33, 46, 11, 13, 8, 16, 38, 26, 28, 0)
s = 154: (0, 23, 21, 61, 14, 11, 14, 15, 30, 18, 42, 0)
s = 155: (0, 28, 17, 94, 16, 14, 20, 22, 41, 29, 33, 0)
s = 156: (0, 27, 19, 53, 11, 8, 13, 13, 32, 13, 21, 0)
s = 157: (0, 32, 14, 46, 10, 8, 11, 21, 34, 14, 27, 0)
s = 158: (0, 18, 19, 91, 21, 11, 14, 10, 29, 23, 34, 0)
s = 159: (0, 25, 15, 64, 12, 12, 10, 24, 29, 18, 25, 0)
s = 160: (0, 23, 16, 49, 20, 7, 11, 18, 25, 18, 43, 0)
s = 161: (0, 29, 23, 119, 22, 8, 10, 10, 47, 22, 23, 0)
s = 162: (0, 34, 14, 130, 17, 10, 18, 21, 42, 13, 19, 0)
s = 163: (0, 44, 19, 53, 12, 9, 12, 24, 24, 21, 26, 0)
s = 164: (0, 25, 23, 77, 17, 9, 9, 15, 25, 22, 40, 0)
s = 165: (0, 21, 18, 106, 23, 11, 19, 19, 31, 24, 29, 0)
s = 166: (0, 24, 16, 53, 17, 8, 9, 22, 30, 23, 50, 0)
s = 167: (0, 37, 16, 129, 18, 13, 11, 14, 20, 17, 37, 0)
s = 168: (0, 19, 26, 68, 16, 10, 13, 13, 18, 22, 20, 0)
s = 169: (0, 24, 19, 69, 19, 10, 16, 14, 22, 26, 27, 0)
s = 170: (0, 25, 16, 72, 20, 9, 19, 26, 21, 17, 20, 0)
s = 171: (0, 43, 24, 105, 15, 7, 8, 14, 27, 16, 27, 0)
s = 172: (0, 24, 12, 103, 22, 11, 20, 18, 32, 25, 47, 0)
s = 173: (0, 17, 29, 73, 19, 11, 10, 21, 38, 21, 28, 0)
s = 174: (0, 21, 17, 79, 10, 14, 7, 18, 25, 18, 31, 0)
s = 175: (0, 15, 16, 112, 27, 15, 9, 17, 20, 17, 31, 0)
s = 176: (0, 38, 18, 105, 23, 9, 10, 26, 35, 15, 26, 0)
s = 177: (0, 27, 23, 57, 14, 6, 15, 14, 38, 12, 26, 0)
s = 178: (0, 28, 24, 93, 12, 14, 13, 23, 33, 19, 21, 0)
s = 179: (0, 41, 19, 68, 18, 13, 10, 19, 26, 23, 50, 0)
s = 180: (0, 21, 19, 81, 9, 10, 12, 30, 32, 17, 25, 0)
s = 181: (0, 19, 22, 96, 15, 7, 13, 24, 28, 14, 40, 0)
s = 182: (0, 18, 11, 65, 19, 11, 21, 15, 37, 13, 38, 0)
s = 183: (0, 26, 19, 76, 25, 8, 13, 20, 33, 15, 26, 0)
s = 184: (0, 35, 21, 58, 12, 10, 23, 17, 36, 28, 36, 0)
s = 185: (0, 40, 22, 54, 18, 7, 15, 13, 24, 27, 28, 0)
s = 186: (0, 33, 30, 53, 15, 13, 8, 21, 27, 25, 37, 0)
s = 187: (0, 33, 27, 97, 25, 9, 12, 14, 25, 14, 21, 0)
s = 188: (0, 26, 25, 81, 19, 18, 8, 19, 29, 19, 18, 0)
s = 189: (0, 28, 13, 71, 12, 11, 9, 24, 28, 26, 21, 0)
s = 190: (0, 29, 19, 76, 20, 17, 7, 13, 18, 18, 25, 0)
s = 191: (0, 28, 16, 97, 31, 8, 12, 22, 33, 13, 46, 0)
s = 192: (0, 32, 18, 44, 17, 8, 8, 23, 31, 16, 51, 0)
s = 193: (0, 35, 15, 42, 14, 15, 9, 13, 34, 14, 23, 0)
s = 194: (0, 23, 16, 76, 22, 12, 15, 14, 25, 16, 40, 0)
s = 195: (0, 38, 23, 80, 23, 13, 13, 18, 20, 15, 21, 0)
s = 196: (0, 30, 18, 83, 13, 10, 14, 21, 24, 14, 22, 0)
s = 197: (0, 24, 19, 51, 18, 10, 15, 23, 33, 22, 20, 0)
s = 198: (0, 45, 28, 73, 10, 10, 8, 14, 16, 19, 45, 0)
s = 199: (0, 29, 20, 92, 18, 8, 8, 23, 34, 29, 25, 0)
s = 200: (0, 22, 15, 92, 22, 6, 10, 12, 25, 17, 38, 0)
------------------------------------------------------------------------
RESOURCE k = 2
s = 1: (0, 17, 0, 0, 0, 9, 10, 6, 0, 0, 0, 0)
s = 2: (0, 20, 0, 0, 0, 6, 6, 8, 0, 0, 0, 0)
s = 3: (0, 31, 0, 0, 0, 8, 5, 7, 0, 0, 0, 0)
s = 4: (0, 29, 0, 0, 0, 11, 7, 13, 0, 0, 0, 0)
s = 5: (0, 26, 0, 0, 0, 8, 10, 9, 0, 0, 0, 0)
s = 6: (0, 25, 0, 0, 0, 10, 8, 9, 0, 0, 0, 0)
s = 7: (0, 34, 0, 0, 0, 7, 8, 11, 0, 0, 0, 0)
s = 8: (0, 25, 0, 0, 0, 6, 7, 6, 0, 0, 0, 0)
s = 9: (0, 26, 0, 0, 0, 5, 10, 10, 0, 0, 0, 0)
s = 10: (0, 23, 0, 0, 0, 10, 7, 7, 0, 0, 0, 0)
s = 11: (0, 34, 0, 0, 0, 15, 9, 6, 0, 0, 0, 0)
s = 12: (0, 14, 0, 0, 0, 10, 10, 8, 0, 0, 0, 0)
s = 13: (0, 27, 0, 0, 0, 9, 9, 11, 0, 0, 0, 0)
s = 14: (0, 16, 0, 0, 0, 8, 13, 12, 0, 0, 0, 0)
s = 15: (0, 18, 0, 0, 0, 11, 7, 9, 0, 0, 0, 0)
s = 16: (0, 16, 0, 0, 0, 6, 7, 9, 0, 0, 0, 0)
s = 17: (0, 22, 0, 0, 0, 10, 7, 6, 0, 0, 0, 0)
s = 18: (0, 22, 0, 0, 0, 9, 8, 14, 0, 0, 0, 0)
s = 19: (0, 17, 0, 0, 0, 10, 7, 9, 0, 0, 0, 0)
s = 20: (0, 27, 0, 0, 0, 11, 5, 6, 0, 0, 0, 0)
s = 21: (0, 27, 0, 0, 0, 6, 11, 5, 0, 0, 0, 0)
s = 22: (0, 34, 0, 0, 0, 6, 16, 12, 0, 0, 0, 0)
s = 23: (0, 15, 0, 0, 0, 11, 7, 10, 0, 0, 0, 0)
s = 24: (0, 24, 0, 0, 0, 9, 6, 9, 0, 0, 0, 0)
s = 25: (0, 36, 0, 0, 0, 7, 9, 10, 0, 0, 0, 0)
s = 26: (0, 16, 0, 0, 0, 11, 6, 10, 0, 0, 0, 0)
s = 27: (0, 35, 0, 0, 0, 10, 5, 5, 0, 0, 0, 0)
s = 28: (0, 23, 0, 0, 0, 11, 7, 12, 0, 0, 0, 0)
s = 29: (0, 25, 0, 0, 0, 7, 15, 11, 0, 0, 0, 0)
s = 30: (0, 38, 0, 0, 0, 6, 9, 12, 0, 0, 0, 0)
s = 31: (0, 23, 0, 0, 0, 5, 9, 9, 0, 0, 0, 0)
s = 32: (0, 34, 0, 0, 0, 5, 8, 12, 0, 0, 0, 0)
s = 33: (0, 32, 0, 0, 0, 12, 8, 9, 0, 0, 0, 0)
s = 34: (0, 34, 0, 0, 0, 5, 8, 12, 0, 0, 0, 0)
s = 35: (0, 18, 0, 0, 0, 7, 9, 13, 0, 0, 0, 0)
s = 36: (0, 32, 0, 0, 0, 6, 9, 9, 0, 0, 0, 0)
s = 37: (0, 25, 0, 0, 0, 7, 8, 10, 0, 0, 0, 0)
s = 38: (0, 20, 0, 0, 0, 8, 8, 7, 0, 0, 0, 0)
s = 39: (0, 19, 0, 0, 0, 8, 10, 6, 0, 0, 0, 0)
s = 40: (0, 18, 0, 0, 0, 9, 11, 8, 0, 0, 0, 0)
s = 41: (0, 25, 0, 0, 0, 6, 9, 8, 0, 0, 0, 0)
s = 42: (0, 33, 0, 0, 0, 8, 10, 8, 0, 0, 0, 0)
s = 43: (0, 14, 0, 0, 0, 7, 15, 6, 0, 0, 0, 0)
s = 44: (0, 17, 0, 0, 0, 12, 7, 6, 0, 0, 0, 0)
s = 45: (0, 23, 0, 0, 0, 11, 7, 14, 0, 0, 0, 0)
s = 46: (0, 20, 0, 0, 0, 6, 6, 5, 0, 0, 0, 0)
s = 47: (0, 35, 0, 0, 0, 7, 5, 8, 0, 0, 0, 0)
s = 48: (0, 35, 0, 0, 0, 8, 5, 7, 0, 0, 0, 0)
s = 49: (0, 24, 0, 0, 0, 7, 9, 11, 0, 0, 0, 0)
s = 50: (0, 18, 0, 0, 0, 8, 10, 8, 0, 0, 0, 0)
s = 51: (0, 23, 0, 0, 0, 6, 7, 8, 0, 0, 0, 0)
s = 52: (0, 26, 0, 0, 0, 8, 9, 7, 0, 0, 0, 0)
s = 53: (0, 29, 0, 0, 0, 9, 9, 9, 0, 0, 0, 0)
s = 54: (0, 20, 0, 0, 0, 8, 9, 8, 0, 0, 0, 0)
s = 55: (0, 30, 0, 0, 0, 5, 7, 6, 0, 0, 0, 0)
s = 56: (0, 34, 0, 0, 0, 9, 7, 9, 0, 0, 0, 0)
s = 57: (0, 20, 0, 0, 0, 10, 6, 7, 0, 0, 0, 0)
s = 58: (0, 27, 0, 0, 0, 11, 9, 8, 0, 0, 0, 0)
s = 59: (0, 27, 0, 0, 0, 5, 8, 9, 0, 0, 0, 0)
s = 60: (0, 26, 0, 0, 0, 9, 8, 10, 0, 0, 0, 0)
s = 61: (0, 31, 0, 0, 0, 5, 7, 10, 0, 0, 0, 0)
s = 62: (0, 24, 0, 0, 0, 8, 7, 12, 0, 0, 0, 0)
s = 63: (0, 24, 0, 0, 0, 8, 8, 9, 0, 0, 0, 0)
s = 64: (0, 20, 0, 0, 0, 6, 9, 5, 0, 0, 0, 0)
s = 65: (0, 23, 0, 0, 0, 7, 5, 5, 0, 0, 0, 0)
s = 66: (0, 15, 0, 0, 0, 6, 6, 7, 0, 0, 0, 0)
s = 67: (0, 24, 0, 0, 0, 9, 7, 9, 0, 0, 0, 0)
s = 68: (0, 25, 0, 0, 0, 9, 15, 6, 0, 0, 0, 0)
s = 69: (0, 22, 0, 0, 0, 7, 8, 7, 0, 0, 0, 0)
s = 70: (0, 30, 0, 0, 0, 10, 7, 12, 0, 0, 0, 0)
s = 71: (0, 29, 0, 0, 0, 7, 5, 8, 0, 0, 0, 0)
s = 72: (0, 16, 0, 0, 0, 7, 9, 11, 0, 0, 0, 0)
s = 73: (0, 34, 0, 0, 0, 5, 7, 8, 0, 0, 0, 0)
s = 74: (0, 21, 0, 0, 0, 10, 9, 9, 0, 0, 0, 0)
s = 75: (0, 38, 0, 0, 0, 9, 5, 11, 0, 0, 0, 0)
s = 76: (0, 39, 0, 0, 0, 9, 10, 8, 0, 0, 0, 0)
s = 77: (0, 26, 0, 0, 0, 9, 5, 8, 0, 0, 0, 0)
s = 78: (0, 16, 0, 0, 0, 7, 10, 8, 0, 0, 0, 0)
s = 79: (0, 19, 0, 0, 0, 7, 9, 6, 0, 0, 0, 0)
s = 80: (0, 22, 0, 0, 0, 13, 10, 8, 0, 0, 0, 0)
s = 81: (0, 15, 0, 0, 0, 8, 9, 13, 0, 0, 0, 0)
s = 82: (0, 48, 0, 0, 0, 11, 11, 10, 0, 0, 0, 0)
s = 83: (0, 25, 0, 0, 0, 11, 8, 10, 0, 0, 0, 0)
s = 84: (0, 21, 0, 0, 0, 8, 5, 8, 0, 0, 0, 0)
s = 85: (0, 22, 0, 0, 0, 8, 7, 7, 0, 0, 0, 0)
s = 86: (0, 29, 0, 0, 0, 6, 11, 9, 0, 0, 0, 0)
s = 87: (0, 15, 0, 0, 0, 11, 7, 11, 0, 0, 0, 0)
s = 88: (0, 23, 0, 0, 0, 9, 5, 9, 0, 0, 0, 0)
s = 89: (0, 18, 0, 0, 0, 7, 8, 10, 0, 0, 0, 0)
s = 90: (0, 26, 0, 0, 0, 6, 9, 5, 0, 0, 0, 0)
s = 91: (0, 14, 0, 0, 0, 9, 9, 8, 0, 0, 0, 0)
s = 92: (0, 28, 0, 0, 0, 7, 10, 6, 0, 0, 0, 0)
s = 93: (0, 39, 0, 0, 0, 8, 5, 7, 0, 0, 0, 0)
s = 94: (0, 15, 0, 0, 0, 10, 6, 16, 0, 0, 0, 0)
s = 95: (0, 19, 0, 0, 0, 12, 11, 7, 0, 0, 0, 0)
s = 96: (0, 19, 0, 0, 0, 6, 10, 12, 0, 0, 0, 0)
s = 97: (0, 26, 0, 0, 0, 10, 12, 9, 0, 0, 0, 0)
s = 98: (0, 17, 0, 0, 0, 10, 6, 8, 0, 0, 0, 0)
s = 99: (0, 27, 0, 0, 0, 9, 7, 7, 0, 0, 0, 0)
s = 100: (0, 16, 0, 0, 0, 10, 8, 9, 0, 0, 0, 0)
s = 101: (0, 18, 0, 0, 0, 7, 6, 7, 0, 0, 0, 0)
s = 102: (0, 21, 0, 0, 0, 10, 10, 5, 0, 0, 0, 0)
s = 103: (0, 31, 0, 0, 0, 8, 8, 10, 0, 0, 0, 0)
s = 104: (0, 23, 0, 0, 0, 7, 13, 10, 0, 0, 0, 0)
s = 105: (0, 17, 0, 0, 0, 12, 9, 8, 0, 0, 0, 0)
s = 106: (0, 19, 0, 0, 0, 9, 10, 14, 0, 0, 0, 0)
s = 107: (0, 23, 0, 0, 0, 9, 11, 10, 0, 0, 0, 0)
s = 108: (0, 14, 0, 0, 0, 6, 8, 7, 0, 0, 0, 0)
s = 109: (0, 30, 0, 0, 0, 5, 9, 6, 0, 0, 0, 0)
s = 110: (0, 18, 0, 0, 0, 7, 8, 5, 0, 0, 0, 0)
s = 111: (0, 17, 0, 0, 0, 8, 6, 8, 0, 0, 0, 0)
s = 112: (0, 25, 0, 0, 0, 7, 6, 8, 0, 0, 0, 0)
s = 113: (0, 19, 0, 0, 0, 10, 8, 13, 0, 0, 0, 0)
s = 114: (0, 21, 0, 0, 0, 11, 7, 9, 0, 0, 0, 0)
s = 115: (0, 26, 0, 0, 0, 9, 7, 7, 0, 0, 0, 0)
s = 116: (0, 18, 0, 0, 0, 7, 7, 6, 0, 0, 0, 0)
s = 117: (0, 25, 0, 0, 0, 10, 11, 7, 0, 0, 0, 0)
s = 118: (0, 20, 0, 0, 0, 5, 12, 7, 0, 0, 0, 0)
s = 119: (0, 30, 0, 0, 0, 9, 9, 7, 0, 0, 0, 0)
s = 120: (0, 25, 0, 0, 0, 10, 13, 6, 0, 0, 0, 0)
s = 121: (0, 17, 0, 0, 0, 9, 10, 10, 0, 0, 0, 0)
s = 122: (0, 14, 0, 0, 0, 8, 6, 8, 0, 0, 0, 0)
s = 123: (0, 27, 0, 0, 0, 10, 6, 5, 0, 0, 0, 0)
s = 124: (0, 26, 0, 0, 0, 12, 11, 6, 0, 0, 0, 0)
s = 125: (0, 21, 0, 0, 0, 7, 13, 11, 0, 0, 0, 0)
s = 126: (0, 17, 0, 0, 0, 6, 5, 6, 0, 0, 0, 0)
s = 127: (0, 24, 0, 0, 0, 7, 7, 6, 0, 0, 0, 0)
s = 128: (0, 20, 0, 0, 0, 13, 10, 5, 0, 0, 0, 0)
s = 129: (0, 30, 0, 0, 0, 9, 7, 9, 0, 0, 0, 0)
s = 130: (0, 26, 0, 0, 0, 7, 10, 6, 0, 0, 0, 0)
s = 131: (0, 35, 0, 0, 0, 9, 8, 11, 0, 0, 0, 0)
s = 132: (0, 30, 0, 0, 0, 7, 11, 11, 0, 0, 0, 0)
s = 133: (0, 31, 0, 0, 0, 13, 11, 6, 0, 0, 0, 0)
s = 134: (0, 22, 0, 0, 0, 9, 5, 11, 0, 0, 0, 0)
s = 135: (0, 18, 0, 0, 0, 7, 11, 11, 0, 0, 0, 0)
s = 136: (0, 22, 0, 0, 0, 8, 8, 5, 0, 0, 0, 0)
s = 137: (0, 24, 0, 0, 0, 5, 12, 13, 0, 0, 0, 0)
s = 138: (0, 20, 0, 0, 0, 6, 9, 13, 0, 0, 0, 0)
s = 139: (0, 15, 0, 0, 0, 6, 12, 5, 0, 0, 0, 0)
s = 140: (0, 27, 0, 0, 0, 9, 8, 7, 0, 0, 0, 0)
s = 141: (0, 23, 0, 0, 0, 12, 9, 9, 0, 0, 0, 0)
s = 142: (0, 32, 0, 0, 0, 6, 8, 13, 0, 0, 0, 0)
s = 143: (0, 26, 0, 0, 0, 11, 12, 5, 0, 0, 0, 0)
s = 144: (0, 28, 0, 0, 0, 7, 17, 6, 0, 0, 0, 0)
s = 145: (0, 25, 0, 0, 0, 10, 8, 10, 0, 0, 0, 0)
s = 146: (0, 21, 0, 0, 0, 7, 6, 7, 0, 0, 0, 0)
s = 147: (0, 35, 0, 0, 0, 6, 7, 6, 0, 0, 0, 0)
s = 148: (0, 23, 0, 0, 0, 11, 5, 12, 0, 0, 0, 0)
s = 149: (0, 31, 0, 0, 0, 9, 6, 8, 0, 0, 0, 0)
s = 150: (0, 26, 0, 0, 0, 8, 9, 12, 0, 0, 0, 0)
s = 151: (0, 15, 0, 0, 0, 10, 8, 13, 0, 0, 0, 0)
s = 152: (0, 24, 0, 0, 0, 10, 10, 9, 0, 0, 0, 0)
s = 153: (0, 21, 0, 0, 0, 11, 6, 8, 0, 0, 0, 0)
s = 154: (0, 20, 0, 0, 0, 9, 9, 7, 0, 0, 0, 0)
s = 155: (0, 25, 0, 0, 0, 11, 13, 11, 0, 0, 0, 0)
s = 156: (0, 24, 0, 0, 0, 7, 9, 7, 0, 0, 0, 0)
s = 157: (0, 29, 0, 0, 0, 6, 8, 10, 0, 0, 0, 0)
s = 158: (0, 16, 0, 0, 0, 9, 9, 5, 0, 0, 0, 0)
s = 159: (0, 23, 0, 0, 0, 10, 7, 11, 0, 0, 0, 0)
s = 160: (0, 21, 0, 0, 0, 6, 8, 9, 0, 0, 0, 0)
s = 161: (0, 25, 0, 0, 0, 6, 7, 5, 0, 0, 0, 0)
s = 162: (0, 30, 0, 0, 0, 8, 12, 10, 0, 0, 0, 0)
s = 163: (0, 39, 0, 0, 0, 7, 8, 12, 0, 0, 0, 0)
s = 164: (0, 22, 0, 0, 0, 7, 6, 7, 0, 0, 0, 0)
s = 165: (0, 19, 0, 0, 0, 9, 13, 9, 0, 0, 0, 0)
s = 166: (0, 21, 0, 0, 0, 7, 6, 10, 0, 0, 0, 0)
s = 167: (0, 33, 0, 0, 0, 10, 7, 7, 0, 0, 0, 0)
s = 168: (0, 17, 0, 0, 0, 8, 9, 6, 0, 0, 0, 0)
s = 169: (0, 22, 0, 0, 0, 8, 11, 7, 0, 0, 0, 0)
s = 170: (0, 23, 0, 0, 0, 7, 13, 12, 0, 0, 0, 0)
s = 171: (0, 39, 0, 0, 0, 6, 5, 7, 0, 0, 0, 0)
s = 172: (0, 22, 0, 0, 0, 9, 14, 9, 0, 0, 0, 0)
s = 173: (0, 16, 0, 0, 0, 9, 7, 10, 0, 0, 0, 0)
s = 174: (0, 18, 0, 0, 0, 12, 5, 9, 0, 0, 0, 0)
s = 175: (0, 13, 0, 0, 0, 12, 6, 8, 0, 0, 0, 0)
s = 176: (0, 33, 0, 0, 0, 7, 7, 13, 0, 0, 0, 0)
s = 177: (0, 24, 0, 0, 0, 5, 10, 7, 0, 0, 0, 0)
s = 178: (0, 25, 0, 0, 0, 11, 9, 11, 0, 0, 0, 0)
s = 179: (0, 37, 0, 0, 0, 10, 7, 9, 0, 0, 0, 0)
s = 180: (0, 18, 0, 0, 0, 8, 8, 14, 0, 0, 0, 0)
s = 181: (0, 17, 0, 0, 0, 6, 9, 11, 0, 0, 0, 0)
s = 182: (0, 16, 0, 0, 0, 9, 14, 7, 0, 0, 0, 0)
s = 183: (0, 23, 0, 0, 0, 7, 9, 10, 0, 0, 0, 0)
s = 184: (0, 31, 0, 0, 0, 8, 16, 8, 0, 0, 0, 0)
s = 185: (0, 36, 0, 0, 0, 6, 10, 6, 0, 0, 0, 0)
s = 186: (0, 30, 0, 0, 0, 10, 5, 10, 0, 0, 0, 0)
s = 187: (0, 30, 0, 0, 0, 7, 8, 7, 0, 0, 0, 0)
s = 188: (0, 23, 0, 0, 0, 15, 6, 9, 0, 0, 0, 0)
s = 189: (0, 25, 0, 0, 0, 9, 6, 12, 0, 0, 0, 0)
s = 190: (0, 25, 0, 0, 0, 14, 5, 6, 0, 0, 0, 0)
s = 191: (0, 25, 0, 0, 0, 6, 8, 11, 0, 0, 0, 0)
s = 192: (0, 29, 0, 0, 0, 6, 6, 11, 0, 0, 0, 0)
s = 193: (0, 31, 0, 0, 0, 12, 6, 6, 0, 0, 0, 0)
s = 194: (0, 21, 0, 0, 0, 10, 10, 7, 0, 0, 0, 0)
s = 195: (0, 34, 0, 0, 0, 11, 9, 9, 0, 0, 0, 0)
s = 196: (0, 27, 0, 0, 0, 8, 9, 10, 0, 0, 0, 0)
s = 197: (0, 21, 0, 0, 0, 8, 10, 11, 0, 0, 0, 0)
s = 198: (0, 40, 0, 0, 0, 8, 6, 7, 0, 0, 0, 0)
s = 199: (0, 25, 0, 0, 0, 6, 6, 11, 0, 0, 0, 0)
s = 200: (0, 19, 0, 0, 0, 5, 7, 6, 0, 0, 0, 0)
------------------------------------------------------------------------
RESOURCE k = 3
s = 1: (0, 0, 11, 35, 6, 0, 0, 0, 18, 8, 19, 0)
s = 2: (0, 0, 9, 39, 7, 0, 0, 0, 11, 11, 20, 0)
s = 3: (0, 0, 8, 52, 5, 0, 0, 0, 9, 12, 23, 0)
s = 4: (0, 0, 11, 33, 6, 0, 0, 0, 15, 10, 21, 0)
s = 5: (0, 0, 14, 55, 4, 0, 0, 0, 18, 15, 19, 0)
s = 6: (0, 0, 12, 46, 5, 0, 0, 0, 14, 15, 25, 0)
s = 7: (0, 0, 10, 40, 4, 0, 0, 0, 13, 11, 15, 0)
s = 8: (0, 0, 11, 48, 6, 0, 0, 0, 11, 16, 22, 0)
s = 9: (0, 0, 11, 53, 7, 0, 0, 0, 9, 9, 16, 0)
s = 10: (0, 0, 9, 30, 5, 0, 0, 0, 19, 8, 28, 0)
s = 11: (0, 0, 10, 71, 4, 0, 0, 0, 12, 6, 28, 0)
s = 12: (0, 0, 10, 34, 6, 0, 0, 0, 13, 10, 16, 0)
s = 13: (0, 0, 10, 22, 5, 0, 0, 0, 18, 14, 25, 0)
s = 14: (0, 0, 10, 37, 7, 0, 0, 0, 18, 8, 32, 0)
s = 15: (0, 0, 14, 33, 4, 0, 0, 0, 20, 8, 26, 0)
s = 16: (0, 0, 8, 49, 6, 0, 0, 0, 16, 12, 18, 0)
s = 17: (0, 0, 12, 43, 5, 0, 0, 0, 16, 6, 22, 0)
s = 18: (0, 0, 8, 48, 4, 0, 0, 0, 15, 9, 24, 0)
s = 19: (0, 0, 11, 48, 5, 0, 0, 0, 13, 9, 19, 0)
s = 20: (0, 0, 10, 32, 4, 0, 0, 0, 14, 9, 21, 0)
s = 21: (0, 0, 8, 35, 4, 0, 0, 0, 10, 15, 24, 0)
s = 22: (0, 0, 7, 44, 6, 0, 0, 0, 9, 14, 24, 0)
s = 23: (0, 0, 7, 39, 4, 0, 0, 0, 9, 9, 35, 0)
s = 24: (0, 0, 11, 53, 3, 0, 0, 0, 15, 8, 24, 0)
s = 25: (0, 0, 10, 30, 5, 0, 0, 0, 15, 7, 26, 0)
s = 26: (0, 0, 15, 37, 5, 0, 0, 0, 17, 6, 19, 0)
s = 27: (0, 0, 17, 31, 5, 0, 0, 0, 19, 12, 20, 0)
s = 28: (0, 0, 9, 25, 6, 0, 0, 0, 12, 11, 21, 0)
s = 29: (0, 0, 15, 50, 4, 0, 0, 0, 11, 6, 19, 0)
s = 30: (0, 0, 11, 26, 4, 0, 0, 0, 15, 7, 25, 0)
s = 31: (0, 0, 8, 58, 5, 0, 0, 0, 10, 8, 14, 0)
s = 32: (0, 0, 9, 32, 5, 0, 0, 0, 10, 8, 18, 0)
s = 33: (0, 0, 10, 27, 4, 0, 0, 0, 12, 8, 22, 0)
s = 34: (0, 0, 10, 54, 7, 0, 0, 0, 10, 10, 14, 0)
s = 35: (0, 0, 9, 43, 5, 0, 0, 0, 16, 8, 29, 0)
s = 36: (0, 0, 10, 25, 4, 0, 0, 0, 16, 7, 23, 0)
s = 37: (0, 0, 9, 53, 4, 0, 0, 0, 16, 8, 20, 0)
s = 38: (0, 0, 7, 34, 5, 0, 0, 0, 14, 8, 28, 0)
s = 39: (0, 0, 11, 47, 8, 0, 0, 0, 20, 12, 17, 0)
s = 40: (0, 0, 19, 58, 5, 0, 0, 0, 10, 10, 28, 0)
s = 41: (0, 0, 9, 53, 8, 0, 0, 0, 17, 9, 28, 0)
s = 42: (0, 0, 18, 43, 3, 0, 0, 0, 15, 12, 25, 0)
s = 43: (0, 0, 7, 29, 4, 0, 0, 0, 20, 12, 13, 0)
s = 44: (0, 0, 13, 47, 4, 0, 0, 0, 9, 18, 22, 0)
s = 45: (0, 0, 16, 56, 7, 0, 0, 0, 14, 10, 13, 0)
s = 46: (0, 0, 11, 38, 6, 0, 0, 0, 12, 7, 21, 0)
s = 47: (0, 0, 9, 35, 7, 0, 0, 0, 23, 15, 22, 0)
s = 48: (0, 0, 8, 32, 5, 0, 0, 0, 14, 17, 29, 0)
s = 49: (0, 0, 11, 29, 4, 0, 0, 0, 19, 9, 42, 0)
s = 50: (0, 0, 13, 35, 9, 0, 0, 0, 13, 13, 32, 0)
s = 51: (0, 0, 10, 45, 5, 0, 0, 0, 17, 16, 28, 0)
s = 52: (0, 0, 7, 46, 7, 0, 0, 0, 16, 15, 28, 0)
s = 53: (0, 0, 10, 36, 4, 0, 0, 0, 10, 8, 27, 0)
s = 54: (0, 0, 8, 47, 5, 0, 0, 0, 13, 9, 18, 0)
s = 55: (0, 0, 14, 54, 5, 0, 0, 0, 18, 13, 28, 0)
s = 56: (0, 0, 6, 60, 5, 0, 0, 0, 15, 10, 46, 0)
s = 57: (0, 0, 17, 47, 5, 0, 0, 0, 16, 14, 37, 0)
s = 58: (0, 0, 14, 42, 6, 0, 0, 0, 15, 11, 22, 0)
s = 59: (0, 0, 11, 52, 7, 0, 0, 0, 14, 10, 25, 0)
s = 60: (0, 0, 18, 43, 4, 0, 0, 0, 17, 8, 32, 0)
s = 61: (0, 0, 10, 51, 6, 0, 0, 0, 10, 7, 28, 0)
s = 62: (0, 0, 14, 37, 3, 0, 0, 0, 13, 9, 29, 0)
s = 63: (0, 0, 11, 62, 4, 0, 0, 0, 15, 12, 27, 0)
s = 64: (0, 0, 14, 42, 5, 0, 0, 0, 22, 16, 17, 0)
s = 65: (0, 0, 8, 24, 4, 0, 0, 0, 19, 8, 35, 0)
s = 66: (0, 0, 18, 31, 7, 0, 0, 0, 14, 8, 23, 0)
s = 67: (0, 0, 7, 49, 5, 0, 0, 0, 19, 13, 18, 0)
s = 68: (0, 0, 10, 34, 6, 0, 0, 0, 16, 12, 29, 0)
s = 69: (0, 0, 11, 54, 5, 0, 0, 0, 16, 13, 28, 0)
s = 70: (0, 0, 15, 25, 5, 0, 0, 0, 14, 11, 35, 0)
s = 71: (0, 0, 12, 58, 5, 0, 0, 0, 9, 10, 23, 0)
s = 72: (0, 0, 7, 30, 3, 0, 0, 0, 25, 7, 23, 0)
s = 73: (0, 0, 9, 37, 7, 0, 0, 0, 9, 10, 19, 0)
s = 74: (0, 0, 7, 56, 5, 0, 0, 0, 14, 9, 30, 0)
s = 75: (0, 0, 15, 31, 5, 0, 0, 0, 9, 8, 15, 0)
s = 76: (0, 0, 10, 29, 4, 0, 0, 0, 14, 8, 25, 0)
s = 77: (0, 0, 11, 28, 5, 0, 0, 0, 16, 17, 25, 0)
s = 78: (0, 0, 10, 41, 8, 0, 0, 0, 12, 7, 17, 0)
s = 79: (0, 0, 10, 29, 4, 0, 0, 0, 18, 11, 31, 0)
s = 80: (0, 0, 13, 48, 10, 0, 0, 0, 24, 11, 33, 0)
s = 81: (0, 0, 16, 48, 6, 0, 0, 0, 16, 8, 20, 0)
s = 82: (0, 0, 9, 23, 5, 0, 0, 0, 12, 7, 20, 0)
s = 83: (0, 0, 11, 33, 8, 0, 0, 0, 12, 12, 16, 0)
s = 84: (0, 0, 8, 31, 4, 0, 0, 0, 18, 12, 29, 0)
s = 85: (0, 0, 13, 25, 4, 0, 0, 0, 18, 9, 30, 0)
s = 86: (0, 0, 10, 55, 4, 0, 0, 0, 9, 8, 13, 0)
s = 87: (0, 0, 17, 35, 4, 0, 0, 0, 13, 12, 20, 0)
s = 88: (0, 0, 15, 57, 4, 0, 0, 0, 23, 11, 38, 0)
s = 89: (0, 0, 8, 48, 7, 0, 0, 0, 12, 13, 21, 0)
s = 90: (0, 0, 14, 38, 5, 0, 0, 0, 19, 8, 15, 0)
s = 91: (0, 0, 13, 29, 4, 0, 0, 0, 12, 11, 26, 0)
s = 92: (0, 0, 7, 31, 6, 0, 0, 0, 11, 8, 22, 0)
s = 93: (0, 0, 8, 49, 6, 0, 0, 0, 19, 9, 18, 0)
s = 94: (0, 0, 11, 44, 7, 0, 0, 0, 14, 11, 28, 0)
s = 95: (0, 0, 12, 23, 6, 0, 0, 0, 12, 7, 29, 0)
s = 96: (0, 0, 11, 33, 6, 0, 0, 0, 9, 6, 35, 0)
s = 97: (0, 0, 7, 47, 9, 0, 0, 0, 11, 13, 21, 0)
s = 98: (0, 0, 13, 28, 5, 0, 0, 0, 14, 10, 36, 0)
s = 99: (0, 0, 9, 37, 6, 0, 0, 0, 15, 13, 25, 0)
s = 100: (0, 0, 13, 46, 7, 0, 0, 0, 19, 9, 25, 0)
s = 101: (0, 0, 8, 23, 8, 0, 0, 0, 11, 11, 23, 0)
s = 102: (0, 0, 11, 43, 5, 0, 0, 0, 12, 11, 28, 0)
s = 103: (0, 0, 11, 33, 5, 0, 0, 0, 10, 12, 42, 0)
s = 104: (0, 0, 10, 51, 8, 0, 0, 0, 15, 7, 20, 0)
s = 105: (0, 0, 8, 45, 7, 0, 0, 0, 18, 7, 37, 0)
s = 106: (0, 0, 7, 49, 8, 0, 0, 0, 12, 13, 20, 0)
s = 107: (0, 0, 9, 26, 4, 0, 0, 0, 14, 13, 14, 0)
s = 108: (0, 0, 8, 46, 4, 0, 0, 0, 18, 12, 20, 0)
s = 109: (0, 0, 13, 59, 8, 0, 0, 0, 21, 10, 25, 0)
s = 110: (0, 0, 10, 28, 8, 0, 0, 0, 15, 12, 20, 0)
s = 111: (0, 0, 14, 45, 4, 0, 0, 0, 21, 8, 28, 0)
s = 112: (0, 0, 8, 30, 3, 0, 0, 0, 23, 17, 22, 0)
s = 113: (0, 0, 6, 24, 6, 0, 0, 0, 11, 12, 37, 0)
s = 114: (0, 0, 13, 32, 4, 0, 0, 0, 13, 9, 22, 0)
s = 115: (0, 0, 9, 32, 5, 0, 0, 0, 17, 11, 26, 0)
s = 116: (0, 0, 10, 46, 7, 0, 0, 0, 14, 12, 27, 0)
s = 117: (0, 0, 14, 64, 5, 0, 0, 0, 18, 7, 18, 0)
s = 118: (0, 0, 13, 43, 5, 0, 0, 0, 10, 12, 17, 0)
s = 119: (0, 0, 14, 46, 6, 0, 0, 0, 23, 8, 24, 0)
s = 120: (0, 0, 8, 29, 6, 0, 0, 0, 19, 15, 27, 0)
s = 121: (0, 0, 13, 46, 8, 0, 0, 0, 14, 9, 28, 0)
s = 122: (0, 0, 10, 41, 6, 0, 0, 0, 17, 10, 22, 0)
s = 123: (0, 0, 11, 31, 9, 0, 0, 0, 12, 6, 33, 0)
s = 124: (0, 0, 13, 65, 7, 0, 0, 0, 10, 9, 25, 0)
s = 125: (0, 0, 8, 36, 6, 0, 0, 0, 11, 11, 13, 0)
s = 126: (0, 0, 17, 25, 6, 0, 0, 0, 12, 11, 24, 0)
s = 127: (0, 0, 8, 41, 4, 0, 0, 0, 15, 7, 17, 0)
s = 128: (0, 0, 11, 42, 5, 0, 0, 0, 20, 11, 24, 0)
s = 129: (0, 0, 9, 35, 5, 0, 0, 0, 18, 12, 18, 0)
s = 130: (0, 0, 7, 27, 4, 0, 0, 0, 12, 7, 22, 0)
s = 131: (0, 0, 9, 47, 4, 0, 0, 0, 19, 12, 21, 0)
s = 132: (0, 0, 19, 47, 7, 0, 0, 0, 15, 10, 26, 0)
s = 133: (0, 0, 7, 33, 5, 0, 0, 0, 17, 7, 28, 0)
s = 134: (0, 0, 12, 55, 5, 0, 0, 0, 17, 13, 41, 0)
s = 135: (0, 0, 10, 43, 6, 0, 0, 0, 13, 10, 21, 0)
s = 136: (0, 0, 11, 26, 4, 0, 0, 0, 17, 15, 17, 0)
s = 137: (0, 0, 15, 42, 4, 0, 0, 0, 12, 17, 22, 0)
s = 138: (0, 0, 14, 52, 4, 0, 0, 0, 21, 13, 22, 0)
s = 139: (0, 0, 11, 52, 4, 0, 0, 0, 12, 7, 33, 0)
s = 140: (0, 0, 13, 34, 7, 0, 0, 0, 23, 14, 24, 0)
s = 141: (0, 0, 8, 45, 7, 0, 0, 0, 11, 13, 20, 0)
s = 142: (0, 0, 8, 58, 5, 0, 0, 0, 12, 10, 41, 0)
s = 143: (0, 0, 12, 31, 8, 0, 0, 0, 16, 12, 16, 0)
s = 144: (0, 0, 10, 38, 7, 0, 0, 0, 14, 10, 36, 0)
s = 145: (0, 0, 8, 43, 5, 0, 0, 0, 11, 8, 16, 0)
s = 146: (0, 0, 17, 35, 8, 0, 0, 0, 23, 15, 34, 0)
s = 147: (0, 0, 13, 29, 9, 0, 0, 0, 15, 8, 33, 0)
s = 148: (0, 0, 14, 43, 7, 0, 0, 0, 15, 9, 19, 0)
s = 149: (0, 0, 8, 38, 7, 0, 0, 0, 15, 14, 33, 0)
s = 150: (0, 0, 6, 44, 5, 0, 0, 0, 20, 9, 25, 0)
s = 151: (0, 0, 8, 27, 5, 0, 0, 0, 12, 8, 30, 0)
s = 152: (0, 0, 10, 43, 6, 0, 0, 0, 13, 6, 18, 0)
s = 153: (0, 0, 17, 24, 4, 0, 0, 0, 19, 13, 23, 0)
s = 154: (0, 0, 11, 32, 5, 0, 0, 0, 15, 9, 34, 0)
s = 155: (0, 0, 9, 50, 5, 0, 0, 0, 21, 15, 27, 0)
s = 156: (0, 0, 10, 28, 4, 0, 0, 0, 16, 7, 17, 0)
s = 157: (0, 0, 7, 25, 3, 0, 0, 0, 17, 7, 22, 0)
s = 158: (0, 0, 10, 48, 6, 0, 0, 0, 15, 12, 28, 0)
s = 159: (0, 0, 8, 34, 4, 0, 0, 0, 15, 9, 20, 0)
s = 160: (0, 0, 8, 26, 6, 0, 0, 0, 13, 9, 35, 0)
s = 161: (0, 0, 12, 63, 7, 0, 0, 0, 24, 11, 18, 0)
s = 162: (0, 0, 7, 69, 5, 0, 0, 0, 21, 7, 15, 0)
s = 163: (0, 0, 10, 28, 4, 0, 0, 0, 12, 11, 21, 0)
s = 164: (0, 0, 12, 41, 5, 0, 0, 0, 13, 11, 32, 0)
s = 165: (0, 0, 9, 56, 7, 0, 0, 0, 16, 12, 23, 0)
s = 166: (0, 0, 8, 28, 5, 0, 0, 0, 15, 12, 40, 0)
s = 167: (0, 0, 8, 68, 6, 0, 0, 0, 10, 9, 30, 0)
s = 168: (0, 0, 13, 36, 5, 0, 0, 0, 9, 11, 16, 0)
s = 169: (0, 0, 10, 37, 6, 0, 0, 0, 11, 13, 22, 0)
s = 170: (0, 0, 8, 38, 6, 0, 0, 0, 11, 9, 16, 0)
s = 171: (0, 0, 12, 55, 5, 0, 0, 0, 14, 8, 22, 0)
s = 172: (0, 0, 6, 54, 7, 0, 0, 0, 16, 13, 37, 0)
s = 173: (0, 0, 15, 39, 6, 0, 0, 0, 19, 11, 23, 0)
s = 174: (0, 0, 9, 42, 3, 0, 0, 0, 13, 9, 25, 0)
s = 175: (0, 0, 8, 59, 8, 0, 0, 0, 10, 9, 25, 0)
s = 176: (0, 0, 9, 55, 7, 0, 0, 0, 18, 8, 21, 0)
s = 177: (0, 0, 12, 30, 5, 0, 0, 0, 19, 6, 21, 0)
s = 178: (0, 0, 12, 49, 4, 0, 0, 0, 17, 10, 17, 0)
s = 179: (0, 0, 10, 36, 6, 0, 0, 0, 13, 12, 40, 0)
s = 180: (0, 0, 10, 43, 3, 0, 0, 0, 16, 9, 20, 0)
s = 181: (0, 0, 11, 51, 5, 0, 0, 0, 14, 7, 32, 0)
s = 182: (0, 0, 6, 34, 6, 0, 0, 0, 19, 7, 30, 0)
s = 183: (0, 0, 10, 40, 8, 0, 0, 0, 17, 8, 21, 0)
s = 184: (0, 0, 11, 31, 4, 0, 0, 0, 18, 14, 29, 0)
s = 185: (0, 0, 11, 29, 6, 0, 0, 0, 12, 14, 23, 0)
s = 186: (0, 0, 15, 28, 5, 0, 0, 0, 14, 13, 30, 0)
s = 187: (0, 0, 14, 51, 8, 0, 0, 0, 13, 7, 17, 0)
s = 188: (0, 0, 13, 43, 6, 0, 0, 0, 15, 10, 15, 0)
s = 189: (0, 0, 7, 38, 4, 0, 0, 0, 14, 13, 17, 0)
s = 190: (0, 0, 10, 40, 6, 0, 0, 0, 9, 9, 20, 0)
s = 191: (0, 0, 8, 51, 10, 0, 0, 0, 17, 7, 37, 0)
s = 192: (0, 0, 9, 24, 5, 0, 0, 0, 16, 8, 41, 0)
s = 193: (0, 0, 8, 23, 5, 0, 0, 0, 17, 7, 19, 0)
s = 194: (0, 0, 8, 40, 7, 0, 0, 0, 13, 8, 32, 0)
s = 195: (0, 0, 12, 42, 7, 0, 0, 0, 10, 8, 17, 0)
s = 196: (0, 0, 9, 44, 4, 0, 0, 0, 12, 7, 18, 0)
s = 197: (0, 0, 10, 27, 6, 0, 0, 0, 17, 11, 16, 0)
s = 198: (0, 0, 14, 39, 3, 0, 0, 0, 8, 10, 36, 0)
s = 199: (0, 0, 10, 49, 6, 0, 0, 0, 17, 15, 20, 0)
s = 200: (0, 0, 8, 49, 7, 0, 0, 0, 13, 9, 30, 0)
************************************************************************
ES/LS-VALUES:
jobnr.   ES(i)    LS(i)
------------------------------------------------------------------------
  0        0        0
  1        0       57
  2        0       55
  3        0       53
  4        3       59
  5        7       64
  6        6       63
  7        7       61
  8        9       63
  9        7       68
 10        8       66
 11       17       72
************************************************************************
BIG-M-VALUES:
M1 = 38, M2 = 240
************************************************************************
